# Random Circle Problem
param d := 0.05; 
param n := 10; 
param radius := 2.00; 
param v0 := 
1 5.28
2 5.03
3 5.87
4 5.44
5 5.11
6 5.77
7 5.64
8 5.89
9 5.32
10 5.73
;
param cap := 
1 3.42336
2 3.27883
3 4.83926
4 5.21199
5 5.69121
6 5.90774
7 0.65489
8 1.13432
9 2.19764
10 2.87772
;
param x0 := 
1 2.00
2 1.62
3 0.62
4 -0.62
5 -1.62
6 -2.00
7 -1.62
8 -0.62
9 0.62
10 1.62
;
param y0 := 
1 -0.00
2 1.18
3 1.90
4 1.90
5 1.18
6 0.00
7 -1.18
8 -1.90
9 -1.90
10 -1.18
;
